countOfNodes = 29;
countOfEdges = 61;
edges = [|2,1,
|3,2,
|4,3,
|5,4,
|5,3,
|6,5,
|6,1,
|7,6,
|7,1,
|8,7,
|8,1,
|8,6,
|9,6,
|9,2,
|9,3,
|10,9,
|10,3,
|11,10,
|11,9,
|12,11,
|13,12,
|13,3,
|13,5,
|14,13,
|14,5,
|14,6,
|14,12,
|15,14,
|15,13,
|16,15,
|16,12,
|16,13,
|17,12,
|17,6,
|17,11,
|18,6,
|18,11,
|19,11,
|19,6,
|19,9,
|20,4,
|20,3,
|21,9,
|21,6,
|22,11,
|22,6,
|23,18,
|23,17,
|24,1,
|24,7,
|24,5,
|25,5,
|25,4,
|25,2,
|25,1,
|26,25,
|27,26,
|27,24,
|27,25,
|28,9,
|29,22|];